<number of tasks>
70

<cycle time>
220

<task times>
1 17
2 66
3 54
4 52
5 6
6 88
7 21
8 128
9 68
10 70
11 85
12 21
13 134
14 135
15 94
16 90
17 50
18 143
19 19
20 54
21 50
22 40
23 73
24 12
25 152
26 42
27 45
28 74
29 26
30 11
31 31
32 50
33 102
34 46
35 35
36 40
37 2
38 1
39 3
40 13
41 16
42 25
43 21
44 43
45 30
46 83
47 89
48 56
49 59
50 43
51 11
52 26
53 44
54 121
55 38
56 68
57 22
58 7
59 16
60 32
61 25
62 27
63 156
64 28
65 15
66 26
67 18
68 72
69 23
70 27

<precedence relations>
1,2
1,41
1,69
1,70
2,3
3,4
3,68
4,6
4,7
5,6
5,24
5,30
6,8
7,8
8,12
9,10
10,11
11,12
12,13
12,14
13,23
14,23
15,16
16,17
16,18
17,19
18,19
19,20
19,22
19,57
20,21
21,23
22,23
23,25
23,31
23,33
24,25
25,26
25,27
25,28
25,29
26,35
27,35
28,35
29,35
30,31
31,32
32,35
33,34
34,35
35,36
35,44
35,48
35,51
35,53
35,56
35,60
35,61
35,62
36,37
37,38
38,39
39,40
40,42
41,42
42,43
43,50
44,45
45,46
46,47
47,50
48,49
49,50
51,52
52,54
53,54
54,55
57,58
58,59
59,60
61,65
62,63
63,64
64,65
64,66
64,67

<setup times forward>
1,9:15
1,10:5
1,11:4
1,15:15
1,16:5
1,17:4
1,18:8
1,19:8
1,20:8
1,22:13
1,24:15
1,30:5
1,41:15
1,59:13
1,69:5
1,70:15
2,9:15
2,10:5
2,11:4
2,15:15
2,16:5
2,17:4
2,18:8
2,19:8
2,20:8
2,22:13
2,24:15
2,30:5
2,41:15
2,59:13
2,69:5
2,70:15
3,9:15
3,10:5
3,11:4
3,15:15
3,16:5
3,17:4
3,18:8
3,19:8
3,20:8
3,22:13
3,24:15
3,30:5
3,41:15
3,59:13
3,68:19
3,69:5
3,70:15
4,6:5
4,9:15
4,10:5
4,11:4
4,15:15
4,16:5
4,17:4
4,18:8
4,19:8
4,20:8
4,22:13
4,24:15
4,30:5
4,41:15
4,59:13
4,68:19
4,69:5
4,70:15
5,6:5
5,9:15
5,10:5
5,11:4
5,15:15
5,16:5
5,17:4
5,18:8
5,19:8
5,20:8
5,22:13
5,24:15
5,30:5
5,41:15
5,59:13
5,68:19
5,69:5
5,70:15
6,7:5
6,8:10
6,9:20
6,10:10
6,11:9
6,15:20
6,17:9
6,18:3
6,19:3
6,20:3
6,21:5
6,22:8
6,24:20
6,41:20
6,57:5
6,58:5
6,59:8
6,68:14
6,70:20
7,6:5
7,8:5
7,9:15
7,10:5
7,11:4
7,15:15
7,16:5
7,17:4
7,18:8
7,19:8
7,20:8
7,22:13
7,24:15
7,30:5
7,41:15
7,59:13
7,68:19
7,69:5
7,70:15
8,9:10
8,11:1
8,12:1
8,15:10
8,16:10
8,17:1
8,18:13
8,19:13
8,20:13
8,21:5
8,22:18
8,24:10
8,30:10
8,41:10
8,57:5
8,58:5
8,59:18
8,68:24
8,69:10
8,70:10
9,1:15
9,2:15
9,3:15
9,4:15
9,5:15
9,6:20
9,7:15
9,8:10
9,10:10
9,16:20
9,17:11
9,18:23
9,19:23
9,20:23
9,21:15
9,22:28
9,30:20
9,57:15
9,58:15
9,59:28
9,68:34
9,69:20
10,1:5
10,2:5
10,3:5
10,4:5
10,5:5
10,6:10
10,7:5
10,11:1
10,15:10
10,16:10
10,17:1
10,18:13
10,19:13
10,20:13
10,21:5
10,22:18
10,24:10
10,30:10
10,41:10
10,57:5
10,58:5
10,59:18
10,68:24
10,69:10
10,70:10
11,1:4
11,2:4
11,3:4
11,4:4
11,5:4
11,6:9
11,7:4
11,8:1
11,15:11
11,16:9
11,18:12
11,19:12
11,20:12
11,21:4
11,22:17
11,24:11
11,30:9
11,41:11
11,57:4
11,58:4
11,59:17
11,68:23
11,69:9
11,70:11
12,13:17
12,14:4
12,15:11
12,16:9
12,18:12
12,19:12
12,20:12
12,21:4
12,22:17
12,24:11
12,30:9
12,41:11
12,57:4
12,58:4
12,59:17
12,68:23
12,69:9
12,70:11
13,14:13
13,15:28
13,16:8
13,17:17
13,18:5
13,19:5
13,20:5
13,21:13
13,23:21
13,24:28
13,30:8
13,41:28
13,57:13
13,58:13
13,68:6
13,69:8
13,70:28
14,13:13
14,15:15
14,16:5
14,17:4
14,18:8
14,19:8
14,20:8
14,22:13
14,23:8
14,24:15
14,30:5
14,41:15
14,59:13
14,68:19
14,69:5
14,70:15
15,1:15
15,2:15
15,3:15
15,4:15
15,5:15
15,6:20
15,7:15
15,8:10
15,10:10
15,11:11
15,12:11
15,13:28
15,14:15
15,16:20
15,30:20
15,68:34
15,69:20
16,1:5
16,2:5
16,3:5
16,4:5
16,5:5
16,7:5
16,8:10
16,9:20
16,10:10
16,11:9
16,12:9
16,13:8
16,14:5
16,17:9
16,18:3
16,24:20
16,41:20
16,68:14
16,70:20
17,1:4
17,2:4
17,3:4
17,4:4
17,5:4
17,6:9
17,7:4
17,8:1
17,9:11
17,10:1
17,13:17
17,14:4
17,18:12
17,19:12
17,24:11
17,30:9
17,41:11
17,68:23
17,69:9
17,70:11
18,1:8
18,2:8
18,3:8
18,4:8
18,5:8
18,6:3
18,7:8
18,8:13
18,9:23
18,10:13
18,11:12
18,12:12
18,13:5
18,14:8
18,17:12
18,24:23
18,30:3
18,41:23
18,68:11
18,69:3
18,70:23
19,1:8
19,2:8
19,3:8
19,4:8
19,5:8
19,6:3
19,7:8
19,8:13
19,9:23
19,10:13
19,11:12
19,12:12
19,13:5
19,14:8
19,22:5
19,24:23
19,30:3
19,41:23
19,57:8
19,68:11
19,69:3
19,70:23
20,1:8
20,2:8
20,3:8
20,4:8
20,5:8
20,6:3
20,7:8
20,8:13
20,9:23
20,10:13
20,11:12
20,12:12
20,13:5
20,14:8
20,21:8
20,22:5
20,24:23
20,30:3
20,41:23
20,57:8
20,58:8
20,59:5
20,68:11
20,69:3
20,70:23
21,6:5
21,8:5
21,9:15
21,10:5
21,11:4
21,12:4
21,13:13
21,22:13
21,23:8
21,24:15
21,30:5
21,41:15
21,59:13
21,68:19
21,69:5
21,70:15
22,1:13
22,2:13
22,3:13
22,4:13
22,5:13
22,6:8
22,7:13
22,8:18
22,9:28
22,10:18
22,11:17
22,12:17
22,14:13
22,20:5
22,21:13
22,23:21
22,24:28
22,30:8
22,41:28
22,57:13
22,58:13
22,68:6
22,69:8
22,70:28
23,24:7
23,25:13
23,30:13
23,41:7
23,57:8
23,58:8
23,59:21
23,68:27
23,69:13
23,70:7
24,1:15
24,2:15
24,3:15
24,4:15
24,6:20
24,7:15
24,8:10
24,10:10
24,11:11
24,12:11
24,13:28
24,14:15
24,16:20
24,17:11
24,18:23
24,19:23
24,20:23
24,21:15
24,22:28
24,23:7
24,25:20
24,30:20
24,31:7
24,32:20
24,33:7
24,34:32
24,57:15
24,58:15
24,59:28
24,68:34
24,69:20
25,26:12
25,27:12
25,28:12
25,29:3
25,31:13
25,33:13
25,34:12
25,41:20
25,57:5
25,58:5
25,59:8
25,68:14
25,70:20
26,29:15
26,30:12
26,31:25
26,32:12
26,33:25
26,35:15
26,41:32
26,57:17
26,58:17
26,59:4
26,68:2
26,69:12
26,70:32
27,29:15
27,30:12
27,31:25
27,32:12
27,33:25
27,35:15
27,41:32
27,57:17
27,58:17
27,59:4
27,68:2
27,69:12
27,70:32
28,29:15
28,30:12
28,31:25
28,32:12
28,33:25
28,35:15
28,41:32
28,57:17
28,58:17
28,59:4
28,68:2
28,69:12
28,70:32
29,26:15
29,27:15
29,28:15
29,30:3
29,31:10
29,32:3
29,33:10
29,34:15
29,41:17
29,57:2
29,58:2
29,59:11
29,68:17
29,69:3
29,70:17
30,1:5
30,2:5
30,3:5
30,4:5
30,7:5
30,8:10
30,9:20
30,10:10
30,11:9
30,12:9
30,13:8
30,14:5
30,15:20
30,17:9
30,18:3
30,19:3
30,20:3
30,21:5
30,22:8
30,23:13
30,24:20
30,26:12
30,27:12
30,28:12
30,29:3
30,31:13
30,33:13
30,34:12
30,41:20
30,57:5
30,58:5
30,59:8
30,68:14
30,70:20
31,24:7
31,25:13
31,26:25
31,27:25
31,28:25
31,29:10
31,32:13
31,34:25
31,41:7
31,57:8
31,58:8
31,59:21
31,68:27
31,69:13
31,70:7
32,24:20
32,26:12
32,27:12
32,28:12
32,29:3
32,33:13
32,34:12
32,35:3
32,41:20
32,57:5
32,58:5
32,59:8
32,68:14
32,70:20
33,24:7
33,25:13
33,26:25
33,27:25
33,28:25
33,29:10
33,30:13
33,32:13
33,34:25
33,41:7
33,57:8
33,58:8
33,59:21
33,68:27
33,69:13
33,70:7
34,24:32
34,25:12
34,29:15
34,30:12
34,31:25
34,32:12
34,35:15
34,41:32
34,57:17
34,58:17
34,59:4
34,68:2
34,69:12
34,70:32
35,36:13
35,41:17
35,48:13
35,56:15
35,57:2
35,58:2
35,59:11
35,60:15
35,61:15
35,68:17
35,69:3
35,70:17
36,41:4
36,44:13
36,45:13
36,46:30
36,47:3
36,49:30
36,51:13
36,52:7
36,53:13
36,55:3
36,56:28
36,57:11
36,58:11
36,59:24
36,60:28
36,61:28
36,62:13
36,63:7
36,64:7
36,65:28
36,66:28
36,67:28
36,68:30
36,69:16
36,70:4
37,41:4
37,44:13
37,45:13
37,46:30
37,47:3
37,49:30
37,51:13
37,52:7
37,53:13
37,55:3
37,56:28
37,57:11
37,58:11
37,59:24
37,60:28
37,61:28
37,62:13
37,63:7
37,64:7
37,65:28
37,66:28
37,67:28
37,68:30
37,69:16
37,70:4
38,39:30
38,41:4
38,44:13
38,45:13
38,46:30
38,47:3
38,49:30
38,51:13
38,52:7
38,53:13
38,55:3
38,56:28
38,57:11
38,58:11
38,59:24
38,60:28
38,61:28
38,62:13
38,63:7
38,64:7
38,65:28
38,66:28
38,67:28
38,68:30
38,69:16
38,70:4
39,40:2
39,41:34
39,44:17
39,45:17
39,47:33
39,48:30
39,51:17
39,52:23
39,53:17
39,54:30
39,55:33
39,56:2
39,57:19
39,58:19
39,59:6
39,60:2
39,61:2
39,62:17
39,63:23
39,64:23
39,65:2
39,66:2
39,67:2
39,69:14
39,70:34
40,41:32
40,42:31
40,44:15
40,45:15
40,46:2
40,47:31
40,48:28
40,49:2
40,51:15
40,52:21
40,53:15
40,54:28
40,55:31
40,57:17
40,58:17
40,59:4
40,62:15
40,63:21
40,64:21
40,68:2
40,69:12
40,70:32
41,2:15
41,3:15
41,4:15
41,5:15
41,6:20
41,7:15
41,8:10
41,10:10
41,11:11
41,12:11
41,13:28
41,14:15
41,16:20
41,17:11
41,18:23
41,19:23
41,20:23
41,21:15
41,22:28
41,23:7
41,25:20
41,26:32
41,27:32
41,28:32
41,29:17
41,30:20
41,31:7
41,32:20
41,33:7
41,34:32
41,35:17
41,36:4
41,37:4
41,38:4
41,39:34
41,40:32
41,42:1
41,44:17
41,45:17
41,46:34
41,47:1
41,48:4
41,49:34
41,51:17
41,52:11
41,53:17
41,54:4
41,55:1
41,56:32
41,57:15
41,58:15
41,59:28
41,60:32
41,61:32
41,62:17
41,63:11
41,64:11
41,65:32
41,66:32
41,67:32
41,68:34
41,69:20
42,44:16
42,45:16
42,46:33
42,48:3
42,49:33
42,51:16
42,52:10
42,53:16
42,54:3
42,56:31
42,57:14
42,58:14
42,59:27
42,60:31
42,61:31
42,62:16
42,63:10
42,64:10
42,65:31
42,66:31
42,67:31
42,68:33
42,69:19
42,70:1
43,44:16
43,45:16
43,46:33
43,48:3
43,49:33
43,51:16
43,52:10
43,53:16
43,54:3
43,56:31
43,57:14
43,58:14
43,59:27
43,60:31
43,61:31
43,62:16
43,63:10
43,64:10
43,65:31
43,66:31
43,67:31
43,68:33
43,69:19
43,70:1
44,36:13
44,37:13
44,38:13
44,39:17
44,40:15
44,41:17
44,42:16
44,43:16
44,48:13
44,49:17
44,52:6
44,54:13
44,55:16
44,56:15
44,57:2
44,58:2
44,59:11
44,60:15
44,61:15
44,63:6
44,64:6
44,65:15
44,66:15
44,67:15
44,68:17
44,69:3
44,70:17
45,36:13
45,37:13
45,38:13
45,39:17
45,40:15
45,41:17
45,42:16
45,43:16
45,46:17
45,48:13
45,49:17
45,52:6
45,54:13
45,55:16
45,56:15
45,57:2
45,58:2
45,59:11
45,60:15
45,61:15
45,63:6
45,64:6
45,65:15
45,66:15
45,67:15
45,68:17
45,69:3
45,70:17
46,36:30
46,37:30
46,38:30
46,40:2
46,41:34
46,42:33
46,43:33
46,47:33
46,48:30
46,51:17
46,52:23
46,53:17
46,54:30
46,55:33
46,56:2
46,57:19
46,58:19
46,59:6
46,60:2
46,61:2
46,62:17
46,63:23
46,64:23
46,65:2
46,66:2
46,67:2
46,69:14
46,70:34
47,36:3
47,37:3
47,38:3
47,39:33
47,40:31
47,41:1
47,48:3
47,49:33
47,51:16
47,52:10
47,53:16
47,54:3
47,56:31
47,57:14
47,58:14
47,59:27
47,60:31
47,61:31
47,62:16
47,63:10
47,64:10
47,65:31
47,66:31
47,67:31
47,68:33
47,69:19
47,70:1
48,39:30
48,40:28
48,41:4
48,42:3
48,43:3
48,44:13
48,45:13
48,46:30
48,47:3
48,49:30
48,51:13
48,52:7
48,53:13
48,55:3
48,56:28
48,57:11
48,58:11
48,59:24
48,60:28
48,61:28
48,62:13
48,63:7
48,64:7
48,65:28
48,66:28
48,67:28
48,68:30
48,69:16
48,70:4
49,36:30
49,37:30
49,38:30
49,40:2
49,41:34
49,42:33
49,43:33
49,44:17
49,45:17
49,47:33
49,50:33
49,51:17
49,52:23
49,53:17
49,54:30
49,55:33
49,56:2
49,57:19
49,58:19
49,59:6
49,60:2
49,61:2
49,62:17
49,63:23
49,64:23
49,65:2
49,66:2
49,67:2
49,69:14
49,70:34
50,51:16
50,52:10
50,53:16
50,54:3
50,56:31
50,57:14
50,58:14
50,59:27
50,60:31
50,61:31
50,62:16
50,63:10
50,64:10
50,65:31
50,66:31
50,67:31
50,68:33
50,69:19
50,70:1
51,36:13
51,37:13
51,38:13
51,39:17
51,40:15
51,41:17
51,42:16
51,43:16
51,46:17
51,47:16
51,48:13
51,49:17
51,50:16
51,52:6
51,56:15
51,57:2
51,58:2
51,59:11
51,60:15
51,61:15
51,63:6
51,64:6
51,65:15
51,66:15
51,67:15
51,68:17
51,69:3
51,70:17
52,36:7
52,37:7
52,38:7
52,39:23
52,40:21
52,41:11
52,42:10
52,43:10
52,44:6
52,45:6
52,46:23
52,47:10
52,48:7
52,49:23
52,50:10
52,53:6
52,54:7
52,56:21
52,57:4
52,58:4
52,59:17
52,60:21
52,61:21
52,62:6
52,65:21
52,66:21
52,67:21
52,68:23
52,69:9
52,70:11
53,36:13
53,37:13
53,38:13
53,39:17
53,40:15
53,41:17
53,42:16
53,43:16
53,46:17
53,47:16
53,48:13
53,49:17
53,50:16
53,52:6
53,54:13
53,56:15
53,57:2
53,58:2
53,59:11
53,60:15
53,61:15
53,63:6
53,64:6
53,65:15
53,66:15
53,67:15
53,68:17
53,69:3
53,70:17
54,39:30
54,40:28
54,41:4
54,42:3
54,43:3
54,44:13
54,45:13
54,46:30
54,47:3
54,49:30
54,50:3
54,55:3
54,56:28
54,57:11
54,58:11
54,59:24
54,60:28
54,61:28
54,62:13
54,63:7
54,64:7
54,65:28
54,66:28
54,67:28
54,68:30
54,69:16
54,70:4
55,36:3
55,37:3
55,38:3
55,39:33
55,40:31
55,41:1
55,44:16
55,45:16
55,46:33
55,48:3
55,49:33
55,56:31
55,57:14
55,58:14
55,59:27
55,60:31
55,61:31
55,62:16
55,63:10
55,64:10
55,65:31
55,66:31
55,67:31
55,68:33
55,69:19
55,70:1
56,36:28
56,37:28
56,38:28
56,39:2
56,41:32
56,42:31
56,43:31
56,44:15
56,45:15
56,46:2
56,47:31
56,48:28
56,49:2
56,50:31
56,51:15
56,52:21
56,53:15
56,54:28
56,55:31
56,57:17
56,58:17
56,59:4
56,62:15
56,63:21
56,64:21
56,68:2
56,69:12
56,70:32
57,6:5
57,8:5
57,9:15
57,10:5
57,11:4
57,12:4
57,13:13
57,20:8
57,22:13
57,23:8
57,24:15
57,25:5
57,26:17
57,27:17
57,28:17
57,29:2
57,30:5
57,31:8
57,32:5
57,33:8
57,34:17
57,35:2
57,36:11
57,37:11
57,38:11
57,39:19
57,40:17
57,41:15
57,42:14
57,43:14
57,44:2
57,45:2
57,46:19
57,47:14
57,48:11
57,49:19
57,50:14
57,51:2
57,52:4
57,53:2
57,54:11
57,55:14
57,56:17
57,61:17
57,62:2
57,63:4
57,64:4
57,65:17
57,66:17
57,67:17
57,68:19
57,69:5
57,70:15
58,6:5
58,8:5
58,9:15
58,10:5
58,11:4
58,12:4
58,13:13
58,20:8
58,22:13
58,23:8
58,24:15
58,25:5
58,26:17
58,27:17
58,28:17
58,29:2
58,30:5
58,31:8
58,32:5
58,33:8
58,34:17
58,35:2
58,36:11
58,37:11
58,38:11
58,39:19
58,40:17
58,41:15
58,42:14
58,43:14
58,44:2
58,45:2
58,46:19
58,47:14
58,48:11
58,49:19
58,50:14
58,51:2
58,52:4
58,53:2
58,54:11
58,55:14
58,56:17
58,59:13
58,61:17
58,62:2
58,63:4
58,64:4
58,65:17
58,66:17
58,67:17
58,68:19
58,69:5
58,70:15
59,1:13
59,2:13
59,3:13
59,4:13
59,5:13
59,6:8
59,7:13
59,8:18
59,9:28
59,10:18
59,11:17
59,12:17
59,14:13
59,20:5
59,21:13
59,23:21
59,24:28
59,25:8
59,26:4
59,27:4
59,28:4
59,29:11
59,30:8
59,31:21
59,32:8
59,33:21
59,34:4
59,35:11
59,36:24
59,37:24
59,38:24
59,39:6
59,40:4
59,41:28
59,42:27
59,43:27
59,44:11
59,45:11
59,46:6
59,47:27
59,48:24
59,49:6
59,50:27
59,51:11
59,52:17
59,53:11
59,54:24
59,55:27
59,56:4
59,60:4
59,61:4
59,62:11
59,63:17
59,64:17
59,65:4
59,66:4
59,67:4
59,68:6
59,69:8
59,70:28
60,36:28
60,37:28
60,38:28
60,39:2
60,41:32
60,42:31
60,43:31
60,44:15
60,45:15
60,46:2
60,47:31
60,48:28
60,49:2
60,50:31
60,51:15
60,52:21
60,53:15
60,54:28
60,55:31
60,62:15
60,63:21
60,64:21
60,68:2
60,69:12
60,70:32
61,36:28
61,37:28
61,38:28
61,39:2
61,41:32
61,42:31
61,43:31
61,44:15
61,45:15
61,46:2
61,47:31
61,48:28
61,49:2
61,50:31
61,51:15
61,52:21
61,53:15
61,54:28
61,55:31
61,57:17
61,58:17
61,59:4
61,62:15
61,63:21
61,64:21
61,68:2
61,69:12
61,70:32
62,36:13
62,37:13
62,38:13
62,39:17
62,40:15
62,41:17
62,42:16
62,43:16
62,46:17
62,47:16
62,48:13
62,49:17
62,50:16
62,52:6
62,54:13
62,55:16
62,56:15
62,57:2
62,58:2
62,59:11
62,60:15
62,61:15
62,63:6
62,68:17
62,69:3
62,70:17
63,36:7
63,37:7
63,38:7
63,39:23
63,40:21
63,41:11
63,42:10
63,43:10
63,44:6
63,45:6
63,46:23
63,47:10
63,48:7
63,49:23
63,50:10
63,51:6
63,53:6
63,54:7
63,55:10
63,56:21
63,57:4
63,58:4
63,59:17
63,60:21
63,61:21
63,68:23
63,69:9
63,70:11
64,36:7
64,37:7
64,38:7
64,39:23
64,40:21
64,41:11
64,42:10
64,43:10
64,44:6
64,45:6
64,46:23
64,47:10
64,48:7
64,49:23
64,50:10
64,51:6
64,53:6
64,54:7
64,55:10
64,56:21
64,57:4
64,58:4
64,59:17
64,60:21
64,61:21
64,65:21
64,66:21
64,67:21
64,68:23
64,69:9
64,70:11
65,36:28
65,37:28
65,38:28
65,39:2
65,41:32
65,42:31
65,43:31
65,44:15
65,45:15
65,46:2
65,47:31
65,48:28
65,49:2
65,50:31
65,51:15
65,52:21
65,53:15
65,54:28
65,55:31
65,57:17
65,58:17
65,59:4
65,68:2
65,69:12
65,70:32
66,36:28
66,37:28
66,38:28
66,39:2
66,41:32
66,42:31
66,43:31
66,44:15
66,45:15
66,46:2
66,47:31
66,48:28
66,49:2
66,50:31
66,51:15
66,52:21
66,53:15
66,54:28
66,55:31
66,57:17
66,58:17
66,59:4
66,68:2
66,69:12
66,70:32
67,36:28
67,37:28
67,38:28
67,39:2
67,41:32
67,42:31
67,43:31
67,44:15
67,45:15
67,46:2
67,47:31
67,48:28
67,49:2
67,50:31
67,51:15
67,52:21
67,53:15
67,54:28
67,55:31
67,57:17
67,58:17
67,59:4
67,68:2
67,69:12
67,70:32
68,4:19
68,5:19
68,6:14
68,7:19
68,8:24
68,9:34
68,10:24
68,11:23
68,12:23
68,13:6
68,14:19
68,15:34
68,16:14
68,17:23
68,18:11
68,19:11
68,20:11
68,21:19
68,22:6
68,23:27
68,24:34
68,25:14
68,26:2
68,27:2
68,28:2
68,29:17
68,30:14
68,31:27
68,32:14
68,33:27
68,34:2
68,35:17
68,36:30
68,37:30
68,38:30
68,40:2
68,41:34
68,42:33
68,43:33
68,44:17
68,45:17
68,47:33
68,48:30
68,50:33
68,51:17
68,52:23
68,53:17
68,54:30
68,55:33
68,56:2
68,57:19
68,58:19
68,59:6
68,60:2
68,61:2
68,62:17
68,63:23
68,64:23
68,65:2
68,66:2
68,67:2
68,69:14
68,70:34
69,2:5
69,3:5
69,4:5
69,5:5
69,7:5
69,8:10
69,9:20
69,10:10
69,11:9
69,12:9
69,13:8
69,14:5
69,15:20
69,17:9
69,18:3
69,19:3
69,20:3
69,21:5
69,22:8
69,23:13
69,24:20
69,26:12
69,27:12
69,28:12
69,29:3
69,31:13
69,33:13
69,34:12
69,35:3
69,36:16
69,37:16
69,38:16
69,39:14
69,40:12
69,41:20
69,42:19
69,43:19
69,44:3
69,45:3
69,46:14
69,47:19
69,48:16
69,49:14
69,50:19
69,51:3
69,52:9
69,53:3
69,54:16
69,55:19
69,56:12
69,57:5
69,58:5
69,59:8
69,60:12
69,61:12
69,62:3
69,63:9
69,64:9
69,65:12
69,66:12
69,67:12
69,68:14
69,70:20
70,2:15
70,3:15
70,4:15
70,5:15
70,6:20
70,7:15
70,8:10
70,10:10
70,11:11
70,12:11
70,13:28
70,14:15
70,16:20
70,17:11
70,18:23
70,19:23
70,20:23
70,21:15
70,22:28
70,23:7
70,25:20
70,26:32
70,27:32
70,28:32
70,29:17
70,30:20
70,31:7
70,32:20
70,33:7
70,34:32
70,35:17
70,36:4
70,37:4
70,38:4
70,39:34
70,40:32
70,42:1
70,43:1
70,44:17
70,45:17
70,46:34
70,47:1
70,48:4
70,49:34
70,50:1
70,51:17
70,52:11
70,53:17
70,54:4
70,55:1
70,56:32
70,57:15
70,58:15
70,59:28
70,60:32
70,61:32
70,62:17
70,63:11
70,64:11
70,65:32
70,66:32
70,67:32
70,68:34
70,69:20

<setup times backward>
1,16:5
1,18:8
1,19:8
1,20:8
1,22:13
1,30:5
1,59:13
2,16:5
2,18:8
2,19:8
2,20:8
2,22:13
2,30:5
2,59:13
2,69:5
3,16:5
3,18:8
3,19:8
3,20:8
3,22:13
3,30:5
3,59:13
3,69:5
4,16:5
4,18:8
4,19:8
4,20:8
4,22:13
4,30:5
4,59:13
4,68:19
4,69:5
5,16:5
5,18:8
5,19:8
5,20:8
5,22:13
5,59:13
5,68:19
5,69:5
6,18:3
6,19:3
6,20:3
6,22:8
6,59:8
6,68:14
7,6:5
7,16:5
7,18:8
7,19:8
7,20:8
7,22:13
7,30:5
7,59:13
7,68:19
7,69:5
8,1:5
8,2:5
8,3:5
8,4:5
8,5:5
8,6:10
8,7:5
8,11:1
8,16:10
8,17:1
8,18:13
8,19:13
8,20:13
8,21:5
8,22:18
8,30:10
8,57:5
8,58:5
8,59:18
8,68:24
8,69:10
9,1:15
9,2:15
9,3:15
9,4:15
9,5:15
9,6:20
9,7:15
9,8:10
9,16:20
9,17:11
9,18:23
9,19:23
9,20:23
9,21:15
9,22:28
9,30:20
9,57:15
9,58:15
9,59:28
9,68:34
9,69:20
10,1:5
10,2:5
10,3:5
10,4:5
10,5:5
10,6:10
10,7:5
10,16:10
10,17:1
10,18:13
10,19:13
10,20:13
10,21:5
10,22:18
10,30:10
10,57:5
10,58:5
10,59:18
10,68:24
10,69:10
11,1:4
11,2:4
11,3:4
11,4:4
11,5:4
11,6:9
11,7:4
11,16:9
11,18:12
11,19:12
11,20:12
11,21:4
11,22:17
11,30:9
11,57:4
11,58:4
11,59:17
11,68:23
11,69:9
12,1:4
12,2:4
12,3:4
12,4:4
12,5:4
12,6:9
12,7:4
12,16:9
12,18:12
12,19:12
12,20:12
12,21:4
12,22:17
12,30:9
12,57:4
12,58:4
12,59:17
12,68:23
12,69:9
13,68:6
14,6:5
14,13:13
14,16:5
14,18:8
14,19:8
14,20:8
14,22:13
14,30:5
14,59:13
14,68:19
14,69:5
15,1:15
15,2:15
15,3:15
15,4:15
15,5:15
15,6:20
15,7:15
15,8:10
15,10:10
15,11:11
15,12:11
15,13:28
15,14:15
15,30:20
15,68:34
15,69:20
16,13:8
16,68:14
17,1:4
17,2:4
17,3:4
17,4:4
17,5:4
17,6:9
17,7:4
17,13:17
17,14:4
17,16:9
17,18:12
17,30:9
17,68:23
17,69:9
18,13:5
18,68:11
19,13:5
19,68:11
20,13:5
20,22:5
20,59:5
20,68:11
21,6:5
21,13:13
21,16:5
21,18:8
21,19:8
21,20:8
21,22:13
21,30:5
21,59:13
21,68:19
21,69:5
22,68:6
23,1:8
23,2:8
23,3:8
23,4:8
23,5:8
23,6:13
23,7:8
23,8:3
23,10:3
23,11:4
23,12:4
23,13:21
23,14:8
23,16:13
23,17:4
23,18:16
23,19:16
23,20:16
23,21:8
23,22:21
23,30:13
23,57:8
23,58:8
23,59:21
23,68:27
23,69:13
24,1:15
24,2:15
24,3:15
24,4:15
24,5:15
24,6:20
24,7:15
24,8:10
24,10:10
24,11:11
24,12:11
24,13:28
24,14:15
24,16:20
24,17:11
24,18:23
24,19:23
24,20:23
24,21:15
24,22:28
24,23:7
24,30:20
24,31:7
24,32:20
24,33:7
24,34:32
24,57:15
24,58:15
24,59:28
24,68:34
24,69:20
25,13:8
25,18:3
25,19:3
25,20:3
25,22:8
25,34:12
25,59:8
25,68:14
26,68:2
27,68:2
28,68:2
29,6:3
29,13:11
29,16:3
29,18:6
29,19:6
29,20:6
29,22:11
29,25:3
29,26:15
29,27:15
29,28:15
29,30:3
29,32:3
29,34:15
29,59:11
29,68:17
29,69:3
30,13:8
30,18:3
30,19:3
30,20:3
30,22:8
30,26:12
30,27:12
30,28:12
30,34:12
30,59:8
30,68:14
31,1:8
31,2:8
31,3:8
31,4:8
31,5:8
31,6:13
31,7:8
31,8:3
31,10:3
31,11:4
31,12:4
31,13:21
31,14:8
31,16:13
31,17:4
31,18:16
31,19:16
31,20:16
31,21:8
31,22:21
31,25:13
31,26:25
31,27:25
31,28:25
31,29:10
31,30:13
31,34:25
31,57:8
31,58:8
31,59:21
31,68:27
31,69:13
32,13:8
32,18:3
32,19:3
32,20:3
32,22:8
32,26:12
32,27:12
32,28:12
32,34:12
32,59:8
32,68:14
33,1:8
33,2:8
33,3:8
33,4:8
33,5:8
33,6:13
33,7:8
33,8:3
33,10:3
33,11:4
33,12:4
33,13:21
33,14:8
33,16:13
33,17:4
33,18:16
33,19:16
33,20:16
33,21:8
33,22:21
33,25:13
33,26:25
33,27:25
33,28:25
33,29:10
33,30:13
33,32:13
33,57:8
33,58:8
33,59:21
33,68:27
33,69:13
34,68:2
35,6:3
35,13:11
35,16:3
35,18:6
35,19:6
35,20:6
35,22:11
35,25:3
35,26:15
35,27:15
35,28:15
35,30:3
35,32:3
35,34:15
35,59:11
35,68:17
35,69:3
36,1:11
36,2:11
36,3:11
36,4:11
36,5:11
36,6:16
36,7:11
36,8:6
36,10:6
36,11:7
36,12:7
36,13:24
36,14:11
36,16:16
36,17:7
36,18:19
36,19:19
36,20:19
36,21:11
36,22:24
36,23:3
36,25:16
36,26:28
36,27:28
36,28:28
36,29:13
36,30:16
36,31:3
36,32:16
36,33:3
36,34:28
36,35:13
36,44:13
36,45:13
36,46:30
36,49:30
36,51:13
36,52:7
36,53:13
36,56:28
36,57:11
36,58:11
36,59:24
36,60:28
36,61:28
36,62:13
36,63:7
36,64:7
36,65:28
36,66:28
36,67:28
36,68:30
36,69:16
37,1:11
37,2:11
37,3:11
37,4:11
37,5:11
37,6:16
37,7:11
37,8:6
37,10:6
37,11:7
37,12:7
37,13:24
37,14:11
37,16:16
37,17:7
37,18:19
37,19:19
37,20:19
37,21:11
37,22:24
37,23:3
37,25:16
37,26:28
37,27:28
37,28:28
37,29:13
37,30:16
37,31:3
37,32:16
37,33:3
37,34:28
37,35:13
37,44:13
37,45:13
37,46:30
37,49:30
37,51:13
37,52:7
37,53:13
37,56:28
37,57:11
37,58:11
37,59:24
37,60:28
37,61:28
37,62:13
37,63:7
37,64:7
37,65:28
37,66:28
37,67:28
37,68:30
37,69:16
38,1:11
38,2:11
38,3:11
38,4:11
38,5:11
38,6:16
38,7:11
38,8:6
38,10:6
38,11:7
38,12:7
38,13:24
38,14:11
38,16:16
38,17:7
38,18:19
38,19:19
38,20:19
38,21:11
38,22:24
38,23:3
38,25:16
38,26:28
38,27:28
38,28:28
38,29:13
38,30:16
38,31:3
38,32:16
38,33:3
38,34:28
38,35:13
38,44:13
38,45:13
38,46:30
38,49:30
38,51:13
38,52:7
38,53:13
38,56:28
38,57:11
38,58:11
38,59:24
38,60:28
38,61:28
38,62:13
38,63:7
38,64:7
38,65:28
38,66:28
38,67:28
38,68:30
38,69:16
40,39:2
40,46:2
40,49:2
40,68:2
41,1:15
41,2:15
41,3:15
41,4:15
41,5:15
41,6:20
41,7:15
41,8:10
41,10:10
41,11:11
41,12:11
41,13:28
41,14:15
41,16:20
41,17:11
41,18:23
41,19:23
41,20:23
41,21:15
41,22:28
41,23:7
41,25:20
41,26:32
41,27:32
41,28:32
41,29:17
41,30:20
41,31:7
41,32:20
41,33:7
41,34:32
41,35:17
41,36:4
41,37:4
41,38:4
41,39:34
41,40:32
41,44:17
41,45:17
41,46:34
41,47:1
41,48:4
41,49:34
41,51:17
41,52:11
41,53:17
41,54:4
41,55:1
41,56:32
41,57:15
41,58:15
41,59:28
41,60:32
41,61:32
41,62:17
41,63:11
41,64:11
41,65:32
41,66:32
41,67:32
41,68:34
41,69:20
42,1:14
42,2:14
42,3:14
42,4:14
42,5:14
42,6:19
42,7:14
42,8:9
42,10:9
42,11:10
42,12:10
42,13:27
42,14:14
42,16:19
42,17:10
42,18:22
42,19:22
42,20:22
42,21:14
42,22:27
42,23:6
42,25:19
42,26:31
42,27:31
42,28:31
42,29:16
42,30:19
42,31:6
42,32:19
42,33:6
42,34:31
42,35:16
42,36:3
42,37:3
42,38:3
42,39:33
42,40:31
42,44:16
42,45:16
42,46:33
42,48:3
42,49:33
42,51:16
42,52:10
42,53:16
42,54:3
42,56:31
42,57:14
42,58:14
42,59:27
42,60:31
42,61:31
42,62:16
42,63:10
42,64:10
42,65:31
42,66:31
42,67:31
42,68:33
42,69:19
43,1:14
43,2:14
43,3:14
43,4:14
43,5:14
43,6:19
43,7:14
43,8:9
43,10:9
43,11:10
43,12:10
43,13:27
43,14:14
43,16:19
43,17:10
43,18:22
43,19:22
43,20:22
43,21:14
43,22:27
43,23:6
43,25:19
43,26:31
43,27:31
43,28:31
43,29:16
43,30:19
43,31:6
43,32:19
43,33:6
43,34:31
43,35:16
43,36:3
43,37:3
43,38:3
43,39:33
43,40:31
43,44:16
43,45:16
43,46:33
43,48:3
43,49:33
43,51:16
43,52:10
43,53:16
43,54:3
43,56:31
43,57:14
43,58:14
43,59:27
43,60:31
43,61:31
43,62:16
43,63:10
43,64:10
43,65:31
43,66:31
43,67:31
43,68:33
43,69:19
44,6:3
44,13:11
44,16:3
44,18:6
44,19:6
44,20:6
44,22:11
44,25:3
44,26:15
44,27:15
44,28:15
44,30:3
44,32:3
44,34:15
44,39:17
44,40:15
44,49:17
44,56:15
44,59:11
44,60:15
44,61:15
44,65:15
44,66:15
44,67:15
44,68:17
44,69:3
45,6:3
45,13:11
45,16:3
45,18:6
45,19:6
45,20:6
45,22:11
45,25:3
45,26:15
45,27:15
45,28:15
45,30:3
45,32:3
45,34:15
45,39:17
45,40:15
45,49:17
45,56:15
45,59:11
45,60:15
45,61:15
45,65:15
45,66:15
45,67:15
45,68:17
45,69:3
47,1:14
47,2:14
47,3:14
47,4:14
47,5:14
47,6:19
47,7:14
47,8:9
47,10:9
47,11:10
47,12:10
47,13:27
47,14:14
47,16:19
47,17:10
47,18:22
47,19:22
47,20:22
47,21:14
47,22:27
47,23:6
47,25:19
47,26:31
47,27:31
47,28:31
47,29:16
47,30:19
47,31:6
47,32:19
47,33:6
47,34:31
47,35:16
47,36:3
47,37:3
47,38:3
47,39:33
47,40:31
47,44:16
47,45:16
47,46:33
47,48:3
47,49:33
47,51:16
47,52:10
47,53:16
47,54:3
47,56:31
47,57:14
47,58:14
47,59:27
47,60:31
47,61:31
47,62:16
47,63:10
47,64:10
47,65:31
47,66:31
47,67:31
47,68:33
47,69:19
48,1:11
48,2:11
48,3:11
48,4:11
48,5:11
48,6:16
48,7:11
48,8:6
48,10:6
48,11:7
48,12:7
48,13:24
48,14:11
48,16:16
48,17:7
48,18:19
48,19:19
48,20:19
48,21:11
48,22:24
48,23:3
48,25:16
48,26:28
48,27:28
48,28:28
48,29:13
48,30:16
48,31:3
48,32:16
48,33:3
48,34:28
48,35:13
48,39:30
48,40:28
48,44:13
48,45:13
48,46:30
48,51:13
48,52:7
48,53:13
48,56:28
48,57:11
48,58:11
48,59:24
48,60:28
48,61:28
48,62:13
48,63:7
48,64:7
48,65:28
48,66:28
48,67:28
48,68:30
48,69:16
50,1:14
50,2:14
50,3:14
50,4:14
50,5:14
50,6:19
50,7:14
50,8:9
50,10:9
50,11:10
50,12:10
50,13:27
50,14:14
50,16:19
50,17:10
50,18:22
50,19:22
50,20:22
50,21:14
50,22:27
50,23:6
50,25:19
50,26:31
50,27:31
50,28:31
50,29:16
50,30:19
50,31:6
50,32:19
50,33:6
50,34:31
50,35:16
50,36:3
50,37:3
50,38:3
50,39:33
50,40:31
50,44:16
50,45:16
50,46:33
50,48:3
50,49:33
50,51:16
50,52:10
50,53:16
50,54:3
50,56:31
50,57:14
50,58:14
50,59:27
50,60:31
50,61:31
50,62:16
50,63:10
50,64:10
50,65:31
50,66:31
50,67:31
50,68:33
50,69:19
51,6:3
51,13:11
51,16:3
51,18:6
51,19:6
51,20:6
51,22:11
51,25:3
51,26:15
51,27:15
51,28:15
51,30:3
51,32:3
51,34:15
51,39:17
51,40:15
51,46:17
51,49:17
51,56:15
51,59:11
51,60:15
51,61:15
51,65:15
51,66:15
51,67:15
51,68:17
51,69:3
52,1:4
52,2:4
52,3:4
52,4:4
52,5:4
52,6:9
52,7:4
52,13:17
52,14:4
52,16:9
52,18:12
52,19:12
52,20:12
52,21:4
52,22:17
52,25:9
52,26:21
52,27:21
52,28:21
52,29:6
52,30:9
52,32:9
52,34:21
52,35:6
52,39:23
52,40:21
52,44:6
52,45:6
52,46:23
52,49:23
52,51:6
52,53:6
52,56:21
52,57:4
52,58:4
52,59:17
52,60:21
52,61:21
52,62:6
52,65:21
52,66:21
52,67:21
52,68:23
52,69:9
53,6:3
53,13:11
53,16:3
53,18:6
53,19:6
53,20:6
53,22:11
53,25:3
53,26:15
53,27:15
53,28:15
53,30:3
53,32:3
53,34:15
53,39:17
53,40:15
53,46:17
53,49:17
53,56:15
53,59:11
53,60:15
53,61:15
53,65:15
53,66:15
53,67:15
53,68:17
53,69:3
54,1:11
54,2:11
54,3:11
54,4:11
54,5:11
54,6:16
54,7:11
54,8:6
54,10:6
54,11:7
54,12:7
54,13:24
54,14:11
54,16:16
54,17:7
54,18:19
54,19:19
54,20:19
54,21:11
54,22:24
54,23:3
54,25:16
54,26:28
54,27:28
54,28:28
54,29:13
54,30:16
54,31:3
54,32:16
54,33:3
54,34:28
54,35:13
54,39:30
54,40:28
54,44:13
54,45:13
54,46:30
54,49:30
54,51:13
54,52:7
54,53:13
54,56:28
54,57:11
54,58:11
54,59:24
54,60:28
54,61:28
54,62:13
54,63:7
54,64:7
54,65:28
54,66:28
54,67:28
54,68:30
54,69:16
55,1:14
55,2:14
55,3:14
55,4:14
55,5:14
55,6:19
55,7:14
55,8:9
55,10:9
55,11:10
55,12:10
55,13:27
55,14:14
55,16:19
55,17:10
55,18:22
55,19:22
55,20:22
55,21:14
55,22:27
55,23:6
55,25:19
55,26:31
55,27:31
55,28:31
55,29:16
55,30:19
55,31:6
55,32:19
55,33:6
55,34:31
55,35:16
55,36:3
55,37:3
55,38:3
55,39:33
55,40:31
55,44:16
55,45:16
55,46:33
55,48:3
55,49:33
55,51:16
55,52:10
55,53:16
55,54:3
55,56:31
55,57:14
55,58:14
55,59:27
55,60:31
55,61:31
55,62:16
55,63:10
55,64:10
55,65:31
55,66:31
55,67:31
55,68:33
55,69:19
56,39:2
56,46:2
56,49:2
56,68:2
57,6:5
57,13:13
57,16:5
57,18:8
57,19:8
57,20:8
57,22:13
57,25:5
57,26:17
57,27:17
57,28:17
57,29:2
57,30:5
57,32:5
57,34:17
57,35:2
57,39:19
57,40:17
57,44:2
57,45:2
57,46:19
57,49:19
57,51:2
57,53:2
57,56:17
57,61:17
57,62:2
57,65:17
57,66:17
57,67:17
57,68:19
57,69:5
58,6:5
58,13:13
58,16:5
58,18:8
58,19:8
58,20:8
58,22:13
58,25:5
58,26:17
58,27:17
58,28:17
58,29:2
58,30:5
58,32:5
58,34:17
58,35:2
58,39:19
58,40:17
58,44:2
58,45:2
58,46:19
58,49:19
58,51:2
58,53:2
58,56:17
58,61:17
58,62:2
58,65:17
58,66:17
58,67:17
58,68:19
58,69:5
59,26:4
59,27:4
59,28:4
59,34:4
59,39:6
59,40:4
59,46:6
59,49:6
59,56:4
59,61:4
59,65:4
59,66:4
59,67:4
59,68:6
60,39:2
60,46:2
60,49:2
60,68:2
61,39:2
61,46:2
61,49:2
61,68:2
62,6:3
62,13:11
62,16:3
62,18:6
62,19:6
62,20:6
62,22:11
62,25:3
62,26:15
62,27:15
62,28:15
62,30:3
62,32:3
62,34:15
62,39:17
62,40:15
62,46:17
62,49:17
62,56:15
62,59:11
62,60:15
62,61:15
62,68:17
62,69:3
63,1:4
63,2:4
63,3:4
63,4:4
63,5:4
63,6:9
63,7:4
63,13:17
63,14:4
63,16:9
63,18:12
63,19:12
63,20:12
63,21:4
63,22:17
63,25:9
63,26:21
63,27:21
63,28:21
63,29:6
63,30:9
63,32:9
63,34:21
63,35:6
63,39:23
63,40:21
63,44:6
63,45:6
63,46:23
63,49:23
63,51:6
63,53:6
63,56:21
63,57:4
63,58:4
63,59:17
63,60:21
63,61:21
63,62:6
63,68:23
63,69:9
64,1:4
64,2:4
64,3:4
64,4:4
64,5:4
64,6:9
64,7:4
64,13:17
64,14:4
64,16:9
64,18:12
64,19:12
64,20:12
64,21:4
64,22:17
64,25:9
64,26:21
64,27:21
64,28:21
64,29:6
64,30:9
64,32:9
64,34:21
64,35:6
64,39:23
64,40:21
64,44:6
64,45:6
64,46:23
64,49:23
64,51:6
64,53:6
64,56:21
64,57:4
64,58:4
64,59:17
64,60:21
64,61:21
64,62:6
64,68:23
64,69:9
65,39:2
65,46:2
65,49:2
65,68:2
66,39:2
66,46:2
66,49:2
66,68:2
67,39:2
67,46:2
67,49:2
67,68:2
69,13:8
69,18:3
69,19:3
69,20:3
69,22:8
69,26:12
69,27:12
69,28:12
69,34:12
69,39:14
69,40:12
69,46:14
69,49:14
69,56:12
69,59:8
69,60:12
69,61:12
69,65:12
69,66:12
69,67:12
69,68:14
70,1:15
70,2:15
70,3:15
70,4:15
70,5:15
70,6:20
70,7:15
70,8:10
70,10:10
70,11:11
70,12:11
70,13:28
70,14:15
70,16:20
70,17:11
70,18:23
70,19:23
70,20:23
70,21:15
70,22:28
70,23:7
70,25:20
70,26:32
70,27:32
70,28:32
70,29:17
70,30:20
70,31:7
70,32:20
70,33:7
70,34:32
70,35:17
70,36:4
70,37:4
70,38:4
70,39:34
70,40:32
70,42:1
70,43:1
70,44:17
70,45:17
70,46:34
70,47:1
70,48:4
70,49:34
70,50:1
70,51:17
70,52:11
70,53:17
70,54:4
70,55:1
70,56:32
70,57:15
70,58:15
70,59:28
70,60:32
70,61:32
70,62:17
70,63:11
70,64:11
70,65:32
70,66:32
70,67:32
70,68:34
70,69:20

<end>

<optimal SALBP-1 value>
17


<rand seed>
467321153

<Lower Bounds>
Lm1=16
Lms1=16
Lm2=7
Lm3=9
Lm4=16
Best=16

<Optimal Stations (Iterations: 10)>
22
